interdiction/MCDM/NO_CORR/GEN_FROM_60/17_ITEMS_1000_GEN/K5017W15.KNP.mps
NAME          BLANK   
ROWS
 N  OBJROW
 L  R0000000
COLUMNS
    C0000000  OBJROW     -470.         R0000000  96.         
    C0000001  OBJROW     -947.         R0000000  75.         
    C0000002  OBJROW     -177.         R0000000  316.        
    C0000003  OBJROW     -467.         R0000000  510.        
    C0000004  OBJROW     -902.         R0000000  927.        
    C0000005  OBJROW     -860.         R0000000  475.        
    C0000006  OBJROW     -327.         R0000000  792.        
    C0000007  OBJROW     -442.         R0000000  428.        
    C0000008  OBJROW     -487.         R0000000  492.        
    C0000009  OBJROW     -535.         R0000000  468.        
    C0000010  OBJROW     -85.          R0000000  538.        
    C0000011  OBJROW     -549.         R0000000  233.        
    C0000012  OBJROW     -253.         R0000000  642.        
    C0000013  OBJROW     -6.           R0000000  19.         
    C0000014  OBJROW     -477.         R0000000  480.        
    C0000015  OBJROW     -167.         R0000000  26.         
    C0000016  OBJROW     -562.         R0000000  775.        
RHS
    RHS       R0000000  13564.      
BOUNDS
 BV BOUND     C0000000  1.          
 BV BOUND     C0000001  1.          
 BV BOUND     C0000002  1.          
 BV BOUND     C0000003  1.          
 BV BOUND     C0000004  1.          
 BV BOUND     C0000005  1.          
 BV BOUND     C0000006  1.          
 BV BOUND     C0000007  1.          
 BV BOUND     C0000008  1.          
 BV BOUND     C0000009  1.          
 BV BOUND     C0000010  1.          
 BV BOUND     C0000011  1.          
 BV BOUND     C0000012  1.          
 BV BOUND     C0000013  1.          
 BV BOUND     C0000014  1.          
 BV BOUND     C0000015  1.          
 BV BOUND     C0000016  1.          
ENDATA
