interdiction/MCDM/NO_CORR/GEN_FROM_60/17_ITEMS_1000_GEN/K5017W15.KNP.txt
N 17
M 18
LC 17
LC 18
LC 19
LC 20
LC 21
LC 22
LC 23
LC 24
LC 25
LC 26
LC 27
LC 28
LC 29
LC 30
LC 31
LC 32
LC 33
LR 1
LR 2
LR 3
LR 4
LR 5
LR 6
LR 7
LR 8
LR 9
LR 10
LR 11
LR 12
LR 13
LR 14
LR 15
LR 16
LR 17
LR 18
LO -470
LO -947
LO -177
LO -467
LO -902
LO -860
LO -327
LO -442
LO -487
LO -535
LO -85
LO -549
LO -253
LO -6
LO -477
LO -167
LO -562
OS 1
IC 364
IC 943
IC 496
IC 527
IC 13
IC 409
IC 529
IC 979
IC 634
IC 844
IC 118
IC 13
IC 740
IC 111
IC 828
IC 678
IC 507
IB 4367
